tsp_instances/TSP20/instance65.tsp
NODE_COORD_SECTION
0 196 164
1 85 196
2 101 86
3 25 98
4 157 0
5 8 162
6 30 32
7 72 125
8 103 64
9 117 176
10 154 50
11 122 105
12 135 167
13 64 35
14 129 69
15 31 131
16 135 80
17 121 145
18 22 96
19 32 190
