tsp_instances/TSP20/instance65.opt.tour
TOUR_SECTION
1
13
10
2
20
6
16
8
4
19
7
14
5
11
17
15
9
3
12
18
-1